p cnf 
1 2 3 0
4 5 6 0
7 8 9 0
-1 -2 10 0
1 -10 0
2 -10 0
-4 -5 11 0
4 -11 0
5 -11 0
-7 -8 12 0
7 -12 0
8 -12 0
10 11 12 0
-1 -3 13 0
1 -13 0
3 -13 0
-4 -6 14 0
4 -14 0
6 -14 0
-7 -9 15 0
7 -15 0
9 -15 0
13 14 15 0
-2 -3 16 0
2 -16 0
3 -16 0
-5 -6 17 0
5 -17 0
6 -17 0
-8 -9 18 0
8 -18 0
9 -18 0
16 17 18 0
-1 4 19 0
1 -19 0
-4 -19 0
-2 5 20 0
2 -20 0
-5 -20 0
-3 6 21 0
3 -21 0
-6 -21 0
19 20 21 0
-1 7 22 0
1 -22 0
-7 -22 0
-2 8 23 0
2 -23 0
-8 -23 0
-3 9 24 0
3 -24 0
-9 -24 0
22 23 24 0
-4 1 25 0
4 -25 0
-1 -25 0
-5 2 26 0
5 -26 0
-2 -26 0
-6 3 27 0
6 -27 0
-3 -27 0
25 26 27 0
-4 7 28 0
4 -28 0
-7 -28 0
-5 8 29 0
5 -29 0
-8 -29 0
-6 9 30 0
6 -30 0
-9 -30 0
28 29 30 0
-7 1 31 0
7 -31 0
-1 -31 0
-8 2 32 0
8 -32 0
-2 -32 0
-9 3 33 0
9 -33 0
-3 -33 0
31 32 33 0
-7 4 34 0
7 -34 0
-4 -34 0
-8 5 35 0
8 -35 0
-5 -35 0
-9 6 36 0
9 -36 0
-6 -36 0
34 35 36 0
